results_rootrelaxation/bin018_060_022.srr.sol
solution status: optimal solution found
objective value:                                    0
_var2762_                           0.409674750955408 	(obj:0)
_var2765_                           0.195793726652744 	(obj:0)
_var2790_                          0.0799941566246897 	(obj:0)
_var2797_                          0.0351522681868549 	(obj:0)
_var2814_                           0.076222869421276 	(obj:0)
_var2819_                          0.0275563117735217 	(obj:0)
_var2823_                          0.0395605245274417 	(obj:0)
_var2826_                            0.29217552076139 	(obj:0)
_var2830_                          0.0417035876116012 	(obj:0)
_var2833_                          0.0508035696181687 	(obj:0)
_var2835_                          0.0920600844179579 	(obj:0)
_var2860_                          0.0431014955411813 	(obj:0)
_var2869_                          0.0284644377119028 	(obj:0)
_var2874_                           0.286531540682284 	(obj:0)
_var2884_                           0.245487379584322 	(obj:0)
_var2892_                           0.112629627082565 	(obj:0)
_var2895_                         0.00873025293296043 	(obj:0)
_var2899_                          0.0180210351860892 	(obj:0)
_var2904_                          0.0713355402708802 	(obj:0)
_var2908_                           0.123635787250572 	(obj:0)
_var2911_                          0.0826613666460287 	(obj:0)
_var2924_                           0.091670169619346 	(obj:0)
_var2926_                         0.00677472220173049 	(obj:0)
_var2927_                          0.0845123601167573 	(obj:0)
_var2941_                          0.0570863758180742 	(obj:0)
_var2944_                           0.238857799416201 	(obj:0)
_var2946_                          0.0600205360543576 	(obj:0)
_var2949_                            0.23138577780725 	(obj:0)
_var2952_                          0.0939712579541435 	(obj:0)
_var2956_                           0.303544666698382 	(obj:0)
_var2958_                           0.281581211684905 	(obj:0)
_var2959_                         0.000242912487608438 	(obj:0)
_var2961_                           0.182897875048142 	(obj:0)
_var2964_                          0.0204704318130225 	(obj:0)
_var2967_                          0.0174241453313941 	(obj:0)
_var2979_                         0.00749258322526553 	(obj:0)
_var2981_                          0.0551311733777631 	(obj:0)
_var2982_                           0.222758521557963 	(obj:0)
_var2984_                           0.260432025348598 	(obj:0)
_var2986_                          0.0333638712589952 	(obj:0)
_var2987_                           0.461578540630008 	(obj:0)
_var2988_                           0.376082764879751 	(obj:0)
_var2990_                           0.161149567511495 	(obj:0)
_var2994_                          0.0971747083692903 	(obj:0)
_var2998_                          0.0305390836385075 	(obj:0)
_var3005_                           0.107117994820433 	(obj:0)
_var3007_                           0.179375867524858 	(obj:0)
_var3015_                           0.198680317070457 	(obj:0)
_var3016_                           0.137666351361206 	(obj:0)
_var3019_                           0.258098158299555 	(obj:0)
_var3023_                          0.0205639685393476 	(obj:0)
_var3026_                           0.056085475057006 	(obj:0)
_var3030_                           0.028071843874237 	(obj:0)
_var3035_                           0.243466433941104 	(obj:0)
_var3036_                           0.223612085065387 	(obj:0)
_var3039_                          0.0325172347666743 	(obj:0)
_var3042_                           0.165794921150254 	(obj:0)
_var3044_                          0.0504024243546295 	(obj:0)
_var3047_                          0.0525029826651722 	(obj:0)
_var3049_                            0.12876297060735 	(obj:0)
_var3050_                          0.0282181673090802 	(obj:0)
_var3052_                           0.117374056024431 	(obj:0)
_var3057_                          0.0179065468775738 	(obj:0)
_var3060_                           0.102415216009973 	(obj:0)
_var3063_                           0.184222810041309 	(obj:0)
_var3064_                          0.0208381509401716 	(obj:0)
_var3065_                           0.263464394034303 	(obj:0)
_var3066_                           0.195308451996312 	(obj:0)
_var3067_                           0.220125291472881 	(obj:0)
_var3071_                           0.191341811528424 	(obj:0)
_var3074_                           0.195243248547065 	(obj:0)
_var3075_                           0.115493376073971 	(obj:0)
_var3076_                           0.112843814231799 	(obj:0)
_var3077_                          0.0649790937898966 	(obj:0)
_var3078_                          0.0787370445267227 	(obj:0)
_var3079_                           0.178138167829108 	(obj:0)
_var3081_                          0.0954474619217454 	(obj:0)
_var3086_                          0.0274901978261184 	(obj:0)
_var3087_                           0.231170105235656 	(obj:0)
_var3089_                           0.063548162568361 	(obj:0)
_var3090_                          0.0075307418157496 	(obj:0)
_var3091_                           0.183697707860007 	(obj:0)
_var3093_                           0.172817676439861 	(obj:0)
_var3094_                           0.119960091606698 	(obj:0)
_var3096_                         0.00600673430591703 	(obj:0)
_var3098_                           0.177727567758213 	(obj:0)
_var3099_                            0.29834808867857 	(obj:0)
_var3107_                          0.0651923629276267 	(obj:0)
_var3108_                           0.140540193623458 	(obj:0)
_var3110_                           0.223432808134744 	(obj:0)
_var3112_                          0.0804149069558126 	(obj:0)
_var3113_                          0.0384308207127163 	(obj:0)
_var3115_                           0.035782778560368 	(obj:0)
_var3117_                           0.192793010156575 	(obj:0)
_var3118_                            0.11821306631683 	(obj:0)
_var3119_                           0.129826573768798 	(obj:0)
_var3121_                          0.0245793023622344 	(obj:0)
_var3122_                          0.0519151032256762 	(obj:0)
_var3125_                           0.143578918691524 	(obj:0)
_var3128_                           0.129413493335195 	(obj:0)
_var3129_                          0.0909862013229252 	(obj:0)
_var3130_                           0.289802586088271 	(obj:0)
_var3132_                           0.021672997694458 	(obj:0)
_var3133_                           0.069406182240019 	(obj:0)
_var3135_                          0.0884612533684794 	(obj:0)
_var3140_                          0.0699762683419198 	(obj:0)
_var3142_                           0.110003802897199 	(obj:0)
_var3144_                           0.207346965288473 	(obj:0)
_var3146_                           0.140104229228319 	(obj:0)
_var3147_                           0.124080057681881 	(obj:0)
_var3148_                          0.0668532830206887 	(obj:0)
_var3150_                           0.103121326758168 	(obj:0)
_var3151_                           0.138873053299578 	(obj:0)
_var3152_                          0.0155679325921931 	(obj:0)
_var3153_                          0.0314002928009826 	(obj:0)
_var3155_                          0.0948356193740603 	(obj:0)
_var3157_                           0.161357614326357 	(obj:0)
_var3158_                            0.14833268730888 	(obj:0)
_var3160_                           0.124644420836298 	(obj:0)
_var3162_                           0.096808873078907 	(obj:0)
_var3163_                         0.00792706496199502 	(obj:0)
_var3165_                           0.151898711439592 	(obj:0)
_var3166_                          0.0478144627610379 	(obj:0)
_var3167_                          0.0197825133987589 	(obj:0)
_var3168_                          0.0394415080404332 	(obj:0)
_var3169_                           0.149393120569409 	(obj:0)
_var3170_                           0.128646293431213 	(obj:0)
_var3171_                           0.110734258371538 	(obj:0)
_var3172_                           0.043985475936879 	(obj:0)
_var3173_                           0.137323280177526 	(obj:0)
_var3174_                           0.124456256226172 	(obj:0)
_var3175_                           0.142701691351025 	(obj:0)
_var3176_                          0.0410888267423132 	(obj:0)
_var3180_                           0.101457363701694 	(obj:0)
_var3181_                           0.058074114178722 	(obj:0)
_var3182_                          0.0907571609173102 	(obj:0)
_var3183_                          0.0450458250863865 	(obj:0)
_var3184_                          0.0796300594014931 	(obj:0)
_var3186_                          0.0195962954519577 	(obj:0)
_var3187_                          0.0273627236247473 	(obj:0)
_var3188_                           0.011742448639287 	(obj:0)
_var3189_                          0.0407276694679993 	(obj:0)
_var3191_                          0.0774902711235007 	(obj:0)
_var3194_                           0.115792101354996 	(obj:0)
_var3198_                         0.00889430492510869 	(obj:0)
_var3200_                          0.0496649625643433 	(obj:0)
_var3201_                          0.0974966465013699 	(obj:0)
_var3205_                          0.0819402617233099 	(obj:0)
_var3206_                          0.0829915842582286 	(obj:0)
_var3208_                          0.0415928867836806 	(obj:0)
_var3210_                          0.0484849341771105 	(obj:0)
_var3212_                           0.117763814754869 	(obj:0)
